problem_generation/data/GISP/train/er_n=67_m=1333_p=0.60_SET2_setparam=100.00_alpha=0.50_272.lp
maximize
OBJ:100x0 + 100x1 + 100x2 + 100x3 + 100x4 + 100x5 + 100x6 + 100x7 + 100x8 + 100x9 + 100x10 + 100x11 + 100x12 + 100x13 + 100x14 + 100x15 + 100x16 + 100x17 + 100x18 + 100x19 + 100x20 + 100x21 + 100x22 + 100x23 + 100x24 + 100x25 + 100x26 + 100x27 + 100x28 + 100x29 + 100x30 + 100x31 + 100x32 + 100x33 + 100x34 + 100x35 + 100x36 + 100x37 + 100x38 + 100x39 + 100x40 + 100x41 + 100x42 + 100x43 + 100x44 + 100x45 + 100x46 + 100x47 + 100x48 + 100x49 + 100x50 + 100x51 + 100x52 + 100x53 + 100x54 + 100x55 + 100x56 + 100x57 + 100x58 + 100x59 + 100x60 + 100x61 + 100x62 + 100x63 + 100x64 + 100x65 + 100x66 - y55_57 - y7_17 - y36_53 - y59_64 - y28_58 - y7_35 - y5_65 - y18_44 - y0_5 - y8_18 - y0_14 - y6_48 - y11_14 - y29_50 - y11_23 - y21_64 - y10_27 - y14_15 - y22_28 - y3_24 - y43_60 - y3_42 - y36_48 - y47_48 - y7_21 - y17_53 - y9_49 - y5_60 - y6_34 - y48_49 - y48_58 - y21_41 - y21_50 - y6_61 - y2_27 - y25_29 - y2_45 - y25_47 - y10_58 - y2_54 - y3_28 - y14_28 - y16_56 - y36_43 - y17_39 - y36_61 - y5_55 - y9_53 - y29_31 - y29_49 - y40_49 - y21_54 - y2_13 - y39_62 - y2_22 - y10_35 - y2_31 - y10_44 - y51_54 - y2_49 - y22_27 - y32_59 - y13_55 - y35_55 - y14_32 - y1_62 - y28_34 - y55_60 - y5_50 - y17_52 - y28_52 - y5_59 - y9_57 - y21_22 - y50_58 - y9_66 - y29_44 - y40_44 - y6_51 - y21_49 - y10_21 - y39_66 - y31_62 - y2_35 - y4_63 - y43_45 - y32_54 - y1_48 - y13_59 - y24_59 - y17_20 - y28_29 - y28_56 - y9_52 - y6_28 - y58_66 - y9_61 - y61_62 - y42_58 - y8_65 - y19_65 - y30_65 - y39_43 - y10_16 - y10_25 - y12_44 - y39_61 - y2_30 - y12_62 - y32_40 - y16_32 - y1_43 - y13_45 - y32_58 - y13_54 - y35_54 - y16_50 - y5_31 - y17_33 - y9_29 - y5_40 - y17_42 - y6_23 - y42_44 - y58_61 - y6_32 - y42_53 - y50_66 - y0_56 - y20_34 - y0_65 - y10_11 - y11_65 - y2_7 - y20_43 - y39_47 - y23_39 - y31_52 - y39_65 - y20_61 - y4_44 - y31_61 - y54_63 - y4_53 - y1_29 - y4_62 - y16_27 - y32_44 - y43_53 - y16_36 - y24_49 - y35_49 - y5_8 - y38_51 - y57_64 - y5_35 - y17_37 - y5_44 - y7_63 - y6_9 - y27_50 - y58_65 - y19_46 - y50_61 - y42_57 - y0_51 - y8_64 - y19_64 - y30_64 - y0_60 - y23_34 - y31_47 - y12_43 - y23_43 - y20_56 - y4_39 - y23_52 - y31_65 - y23_61 - y1_24 - y24_26 - y4_66 - y16_49 - y57_59 - y38_64 - y5_39 - y7_58 - y8_32 - y19_32 - y27_45 - y11_37 - y19_50 - y30_50 - y42_52 - y0_46 - y8_59 - y19_59 - y42_61 - y11_55 - y20_33 - y23_29 - y20_42 - y31_42 - y23_38 - y4_52 - y16_17 - y34_53 - y1_28 - y24_30 - y1_46 - y5_7 - y38_41 - y5_16 - y26_48 - y38_50 - y49_50 - y38_59 - y49_59 - y26_66 - y8_36 - y30_36 - y8_45 - y42_47 - y30_54 - y11_50 - y60_64 - y41_60 - y4_20 - y44_65 - y1_14 - y13_16 - y34_48 - y1_23 - y34_57 - y56_57 - y34_66 - y56_66 - y15_43 - y57_58 - y7_39 - y18_39 - y38_54 - y7_48 - y26_61 - y49_63 - y18_57 - y8_22 - y19_22 - y7_66 - y8_31 - y19_31 - y27_44 - y11_27 - y30_31 - y63_65 - y30_49 - y11_45 - y12_19 - y31_32 - y4_15 - y12_28 - y23_28 - y41_64 - y44_60 - y4_33 - y1_9 - y2_63 - y22_41 - y53_56 - y37_39 - y45_52 - y53_65 - y37_48 - y3_55 - y26_29 - y26_38 - y15_47 - y26_47 - y38_49 - y7_43 - y26_56 - y11_13 - y7_61 - y30_35 - y8_44 - y12_14 - y4_10 - y44_46 - y52_59 - y10_53 - y25_51 - y33_64 - y44_64 - y2_58 - y22_36 - y34_38 - y45_47 - y3_50 - y37_52 - y3_59 - y15_24 - y37_61 - y18_20 - y15_33 - y18_29 - y15_42 - y18_56 - y19_21 - y8_30 - y0_26 - y11_35 - y33_41 - y52_54 - y52_63 - y33_59 - y44_59 - y2_53 - y25_55 - y14_27 - y22_40 - y14_36 - y14_45 - y15_19 - y7_15 - y14_63 - y26_28 - y36_60 - y26_46 - y17_65 - y40_48 - y40_57 - y21_53 - y11_30 - y10_43 - y52_58 - y2_39 - y10_61 - y51_62 - y34_37 - y3_31 - y14_31 - y3_49 - y36_46 - y15_23 - y55_59 - y47_55 - y28_51 - y8_11 - y0_7 - y6_41 - y40_43 - y21_39 - y48_56 - y21_48 - y6_59 - y29_61 - y40_61 - y10_29 - y10_38 - y44_49 - y2_43 - y3_8 - y25_54 - y51_66 - y2_61 - y3_26 - y14_26 - y13_58 - y14_35 - y14_44 - y15_18 - y47_50 - y55_63 - y5_53 - y9_51 - y5_62 - y6_27 - y17_64 - y21_25 - y0_2 - y21_52 - y6_63 - y10_24 - y54_58 - y33_35 - y20_65 - y33_44 - y10_51 - y2_47 - y51_61 - y14_21 - y32_57 - y24_62 - y16_58 - y7_9 - y17_41 - y28_41 - y17_50 - y28_50 - y9_55 - y29_33 - y9_64 - y6_40 - y40_42 - y6_49 - y25_26 - y2_42 - y32_43 - y32_52 - y43_52 - y24_48 - y43_61 - y16_44 - y13_57 - y17_18 - y1_64 - y47_49 - y28_45 - y6_8 - y9_41 - y5_52 - y5_61 - y28_63 - y50_60 - y21_33 - y6_44 - y10_14 - y39_50 - y2_10 - y20_46 - y54_57 - y23_51 - y54_66 - y13_34 - y24_34 - y4_65 - y32_47 - y13_43 - y35_43 - y43_56 - y24_52 - y35_52 - y32_65 - y43_65 - y13_61 - y5_20 - y5_38 - y17_40 - y28_40 - y5_47 - y6_21 - y21_28 - y50_64 - y8_58 - y42_60 - y2_14 - y20_50 - y39_63 - y2_23 - y20_59 - y31_59 - y13_20 - y12_64 - y23_64 - y24_29 - y4_60 - y1_36 - y32_51 - y1_54 - y13_56 - y5_15 - y46_53 - y16_61 - y17_26 - y57_62 - y36_39 - y5_42 - y5_51 - y6_16 - y27_48 - y21_23 - y19_53 - y27_66 - y30_62 - y42_64 - y12_32 - y31_45 - y39_58 - y23_41 - y54_56 - y23_50 - y13_15 - y20_63 - y23_59 - y16_20 - y1_31 - y13_33 - y16_29 - y34_65 - y1_49 - y35_51 - y46_48 - y38_44 - y17_21 - y38_53 - y28_30 - y57_66 - y26_60 - y38_62 - y5_37 - y7_65 - y27_43 - y8_39 - y27_52 - y50_54 - y8_48 - y42_50 - y30_57 - y42_59 - y19_66 - y11_62 - y12_27 - y39_44 - y2_4 - y31_40 - y4_32 - y23_45 - y12_54 - y13_19 - y53_55 - y4_50 - y1_26 - y13_28 - y53_64 - y13_37 - y1_44 - y37_65 - y5_14 - y46_52 - y5_23 - y57_61 - y26_55 - y8_34 - y19_34 - y0_30 - y30_52 - y27_65 - y0_48 - y11_48 - y8_61 - y12_13 - y30_61 - y11_57 - y12_22 - y20_35 - y4_18 - y0_66 - y4_27 - y1_3 - y4_45 - y45_55 - y37_51 - y1_39 - y3_58 - y26_41 - y46_56 - y9_16 - y15_50 - y26_50 - y38_52 - y15_59 - y38_61 - y49_61 - y19_20 - y7_64 - y19_38 - y30_38 - y27_51 - y11_34 - y19_47 - y30_47 - y42_49 - y30_56 - y11_52 - y12_17 - y20_30 - y12_26 - y4_22 - y44_58 - y23_35 - y1_7 - y4_40 - y1_16 - y53_54 - y1_25 - y53_63 - y22_57 - y34_59 - y14_53 - y22_66 - y26_27 - y46_51 - y7_32 - y26_45 - y38_47 - y15_54 - y18_50 - y15_63 - y18_59 - y19_24 - y29_65 - y19_51 - y30_51 - y0_47 - y4_8 - y52_57 - y44_53 - y12_30 - y25_49 - y44_62 - y25_58 - y34_36 - y2_65 - y34_45 - y53_58 - y22_52 - y45_63 - y37_59 - y15_22 - y3_66 - y37_49 - y18_36 - y7_54 - y27_32 - y18_63 - y0_24 - y29_60 - y8_37 - y11_33 - y11_42 - y33_39 - y4_12 - y10_46 - y33_48 - y25_44 - y41_61 - y33_57 - y33_66 - y22_29 - y45_49 - y22_56 - y3_52 - y14_52 - y15_17 - y55_62 - y18_22 - y18_31 - y15_44 - y7_40 - y18_40 - y8_14 - y48_50 - y29_46 - y19_23 - y29_55 - y40_55 - y30_32 - y21_51 - y0_28 - y40_64 - y21_60 - y25_30 - y41_56 - y10_50 - y2_46 - y10_59 - y34_35 - y3_29 - y22_42 - y37_40 - y14_47 - y7_8
 Subject to
C1: x0+x2-y0_2 <=1 
C2: x0+x4 <=1 
C3: x0+x5-y0_5 <=1 
C4: x0+x7-y0_7 <=1 
C5: x0+x12 <=1 
C6: x0+x14-y0_14 <=1 
C7: x0+x15 <=1 
C8: x0+x16 <=1 
C9: x0+x18 <=1 
C10: x0+x21 <=1 
C11: x0+x24-y0_24 <=1 
C12: x0+x25 <=1 
C13: x0+x26-y0_26 <=1 
C14: x0+x28-y0_28 <=1 
C15: x0+x30-y0_30 <=1 
C16: x0+x33 <=1 
C17: x0+x35 <=1 
C18: x0+x37 <=1 
C19: x0+x38 <=1 
C20: x0+x39 <=1 
C21: x0+x42 <=1 
C22: x0+x44 <=1 
C23: x0+x46-y0_46 <=1 
C24: x0+x47-y0_47 <=1 
C25: x0+x48-y0_48 <=1 
C26: x0+x50 <=1 
C27: x0+x51-y0_51 <=1 
C28: x0+x52 <=1 
C29: x0+x53 <=1 
C30: x0+x54 <=1 
C31: x0+x55 <=1 
C32: x0+x56-y0_56 <=1 
C33: x0+x59 <=1 
C34: x0+x60-y0_60 <=1 
C35: x0+x62 <=1 
C36: x0+x65-y0_65 <=1 
C37: x0+x66-y0_66 <=1 
C38: x1+x3-y1_3 <=1 
C39: x1+x4 <=1 
C40: x1+x5 <=1 
C41: x1+x7-y1_7 <=1 
C42: x1+x8 <=1 
C43: x1+x9-y1_9 <=1 
C44: x1+x12 <=1 
C45: x1+x14-y1_14 <=1 
C46: x1+x16-y1_16 <=1 
C47: x1+x17 <=1 
C48: x1+x18 <=1 
C49: x1+x23-y1_23 <=1 
C50: x1+x24-y1_24 <=1 
C51: x1+x25-y1_25 <=1 
C52: x1+x26-y1_26 <=1 
C53: x1+x28-y1_28 <=1 
C54: x1+x29-y1_29 <=1 
C55: x1+x31-y1_31 <=1 
C56: x1+x34 <=1 
C57: x1+x35 <=1 
C58: x1+x36-y1_36 <=1 
C59: x1+x37 <=1 
C60: x1+x38 <=1 
C61: x1+x39-y1_39 <=1 
C62: x1+x40 <=1 
C63: x1+x41 <=1 
C64: x1+x43-y1_43 <=1 
C65: x1+x44-y1_44 <=1 
C66: x1+x45 <=1 
C67: x1+x46-y1_46 <=1 
C68: x1+x48-y1_48 <=1 
C69: x1+x49-y1_49 <=1 
C70: x1+x51 <=1 
C71: x1+x54-y1_54 <=1 
C72: x1+x62-y1_62 <=1 
C73: x1+x64-y1_64 <=1 
C74: x1+x66 <=1 
C75: x2+x3 <=1 
C76: x2+x4-y2_4 <=1 
C77: x2+x6 <=1 
C78: x2+x7-y2_7 <=1 
C79: x2+x9 <=1 
C80: x2+x10-y2_10 <=1 
C81: x2+x13-y2_13 <=1 
C82: x2+x14-y2_14 <=1 
C83: x2+x15 <=1 
C84: x2+x16 <=1 
C85: x2+x17 <=1 
C86: x2+x19 <=1 
C87: x2+x21 <=1 
C88: x2+x22-y2_22 <=1 
C89: x2+x23-y2_23 <=1 
C90: x2+x27-y2_27 <=1 
C91: x2+x28 <=1 
C92: x2+x30-y2_30 <=1 
C93: x2+x31-y2_31 <=1 
C94: x2+x33 <=1 
C95: x2+x35-y2_35 <=1 
C96: x2+x36 <=1 
C97: x2+x37 <=1 
C98: x2+x39-y2_39 <=1 
C99: x2+x40 <=1 
C100: x2+x42-y2_42 <=1 
C101: x2+x43-y2_43 <=1 
C102: x2+x45-y2_45 <=1 
C103: x2+x46-y2_46 <=1 
C104: x2+x47-y2_47 <=1 
C105: x2+x49-y2_49 <=1 
C106: x2+x50 <=1 
C107: x2+x53-y2_53 <=1 
C108: x2+x54-y2_54 <=1 
C109: x2+x55 <=1 
C110: x2+x58-y2_58 <=1 
C111: x2+x60 <=1 
C112: x2+x61-y2_61 <=1 
C113: x2+x63-y2_63 <=1 
C114: x2+x64 <=1 
C115: x2+x65-y2_65 <=1 
C116: x2+x66 <=1 
C117: x3+x7 <=1 
C118: x3+x8-y3_8 <=1 
C119: x3+x9 <=1 
C120: x3+x13 <=1 
C121: x3+x14 <=1 
C122: x3+x16 <=1 
C123: x3+x18 <=1 
C124: x3+x20 <=1 
C125: x3+x21 <=1 
C126: x3+x22 <=1 
C127: x3+x23 <=1 
C128: x3+x24-y3_24 <=1 
C129: x3+x25 <=1 
C130: x3+x26-y3_26 <=1 
C131: x3+x28-y3_28 <=1 
C132: x3+x29-y3_29 <=1 
C133: x3+x30 <=1 
C134: x3+x31-y3_31 <=1 
C135: x3+x32 <=1 
C136: x3+x35 <=1 
C137: x3+x36 <=1 
C138: x3+x37 <=1 
C139: x3+x38 <=1 
C140: x3+x39 <=1 
C141: x3+x41 <=1 
C142: x3+x42-y3_42 <=1 
C143: x3+x46 <=1 
C144: x3+x49-y3_49 <=1 
C145: x3+x50-y3_50 <=1 
C146: x3+x51 <=1 
C147: x3+x52-y3_52 <=1 
C148: x3+x53 <=1 
C149: x3+x55-y3_55 <=1 
C150: x3+x58-y3_58 <=1 
C151: x3+x59-y3_59 <=1 
C152: x3+x61 <=1 
C153: x3+x63 <=1 
C154: x3+x64 <=1 
C155: x3+x66-y3_66 <=1 
C156: x4+x8-y4_8 <=1 
C157: x4+x9 <=1 
C158: x4+x10-y4_10 <=1 
C159: x4+x12-y4_12 <=1 
C160: x4+x13 <=1 
C161: x4+x15-y4_15 <=1 
C162: x4+x17 <=1 
C163: x4+x18-y4_18 <=1 
C164: x4+x20-y4_20 <=1 
C165: x4+x22-y4_22 <=1 
C166: x4+x25 <=1 
C167: x4+x27-y4_27 <=1 
C168: x4+x30 <=1 
C169: x4+x31 <=1 
C170: x4+x32-y4_32 <=1 
C171: x4+x33-y4_33 <=1 
C172: x4+x35 <=1 
C173: x4+x39-y4_39 <=1 
C174: x4+x40-y4_40 <=1 
C175: x4+x41 <=1 
C176: x4+x43 <=1 
C177: x4+x44-y4_44 <=1 
C178: x4+x45-y4_45 <=1 
C179: x4+x46 <=1 
C180: x4+x48 <=1 
C181: x4+x50-y4_50 <=1 
C182: x4+x52-y4_52 <=1 
C183: x4+x53-y4_53 <=1 
C184: x4+x54 <=1 
C185: x4+x59 <=1 
C186: x4+x60-y4_60 <=1 
C187: x4+x61 <=1 
C188: x4+x62-y4_62 <=1 
C189: x4+x63-y4_63 <=1 
C190: x4+x64 <=1 
C191: x4+x65-y4_65 <=1 
C192: x4+x66-y4_66 <=1 
C193: x5+x7-y5_7 <=1 
C194: x5+x8-y5_8 <=1 
C195: x5+x11 <=1 
C196: x5+x12 <=1 
C197: x5+x13 <=1 
C198: x5+x14-y5_14 <=1 
C199: x5+x15-y5_15 <=1 
C200: x5+x16-y5_16 <=1 
C201: x5+x17 <=1 
C202: x5+x18 <=1 
C203: x5+x19 <=1 
C204: x5+x20-y5_20 <=1 
C205: x5+x23-y5_23 <=1 
C206: x5+x28 <=1 
C207: x5+x31-y5_31 <=1 
C208: x5+x32 <=1 
C209: x5+x35-y5_35 <=1 
C210: x5+x36 <=1 
C211: x5+x37-y5_37 <=1 
C212: x5+x38-y5_38 <=1 
C213: x5+x39-y5_39 <=1 
C214: x5+x40-y5_40 <=1 
C215: x5+x42-y5_42 <=1 
C216: x5+x44-y5_44 <=1 
C217: x5+x47-y5_47 <=1 
C218: x5+x49 <=1 
C219: x5+x50-y5_50 <=1 
C220: x5+x51-y5_51 <=1 
C221: x5+x52-y5_52 <=1 
C222: x5+x53-y5_53 <=1 
C223: x5+x55-y5_55 <=1 
C224: x5+x56 <=1 
C225: x5+x57 <=1 
C226: x5+x59-y5_59 <=1 
C227: x5+x60-y5_60 <=1 
C228: x5+x61-y5_61 <=1 
C229: x5+x62-y5_62 <=1 
C230: x5+x65-y5_65 <=1 
C231: x6+x7 <=1 
C232: x6+x8-y6_8 <=1 
C233: x6+x9-y6_9 <=1 
C234: x6+x10 <=1 
C235: x6+x12 <=1 
C236: x6+x15 <=1 
C237: x6+x16-y6_16 <=1 
C238: x6+x18 <=1 
C239: x6+x20 <=1 
C240: x6+x21-y6_21 <=1 
C241: x6+x23-y6_23 <=1 
C242: x6+x27-y6_27 <=1 
C243: x6+x28-y6_28 <=1 
C244: x6+x32-y6_32 <=1 
C245: x6+x33 <=1 
C246: x6+x34-y6_34 <=1 
C247: x6+x36 <=1 
C248: x6+x39 <=1 
C249: x6+x40-y6_40 <=1 
C250: x6+x41-y6_41 <=1 
C251: x6+x42 <=1 
C252: x6+x44-y6_44 <=1 
C253: x6+x46 <=1 
C254: x6+x48-y6_48 <=1 
C255: x6+x49-y6_49 <=1 
C256: x6+x50 <=1 
C257: x6+x51-y6_51 <=1 
C258: x6+x53 <=1 
C259: x6+x55 <=1 
C260: x6+x57 <=1 
C261: x6+x59-y6_59 <=1 
C262: x6+x61-y6_61 <=1 
C263: x6+x63-y6_63 <=1 
C264: x6+x64 <=1 
C265: x7+x8-y7_8 <=1 
C266: x7+x9-y7_9 <=1 
C267: x7+x10 <=1 
C268: x7+x12 <=1 
C269: x7+x13 <=1 
C270: x7+x14 <=1 
C271: x7+x15-y7_15 <=1 
C272: x7+x16 <=1 
C273: x7+x17-y7_17 <=1 
C274: x7+x20 <=1 
C275: x7+x21-y7_21 <=1 
C276: x7+x24 <=1 
C277: x7+x27 <=1 
C278: x7+x32-y7_32 <=1 
C279: x7+x33 <=1 
C280: x7+x35-y7_35 <=1 
C281: x7+x36 <=1 
C282: x7+x38 <=1 
C283: x7+x39-y7_39 <=1 
C284: x7+x40-y7_40 <=1 
C285: x7+x43-y7_43 <=1 
C286: x7+x45 <=1 
C287: x7+x47 <=1 
C288: x7+x48-y7_48 <=1 
C289: x7+x49 <=1 
C290: x7+x52 <=1 
C291: x7+x53 <=1 
C292: x7+x54-y7_54 <=1 
C293: x7+x58-y7_58 <=1 
C294: x7+x61-y7_61 <=1 
C295: x7+x62 <=1 
C296: x7+x63-y7_63 <=1 
C297: x7+x64-y7_64 <=1 
C298: x7+x65-y7_65 <=1 
C299: x7+x66-y7_66 <=1 
C300: x8+x9 <=1 
C301: x8+x11-y8_11 <=1 
C302: x8+x12 <=1 
C303: x8+x14-y8_14 <=1 
C304: x8+x17 <=1 
C305: x8+x18-y8_18 <=1 
C306: x8+x19 <=1 
C307: x8+x22-y8_22 <=1 
C308: x8+x23 <=1 
C309: x8+x25 <=1 
C310: x8+x26 <=1 
C311: x8+x29 <=1 
C312: x8+x30-y8_30 <=1 
C313: x8+x31-y8_31 <=1 
C314: x8+x32-y8_32 <=1 
C315: x8+x34-y8_34 <=1 
C316: x8+x36-y8_36 <=1 
C317: x8+x37-y8_37 <=1 
C318: x8+x39-y8_39 <=1 
C319: x8+x42 <=1 
C320: x8+x43 <=1 
C321: x8+x44-y8_44 <=1 
C322: x8+x45-y8_45 <=1 
C323: x8+x46 <=1 
C324: x8+x47 <=1 
C325: x8+x48-y8_48 <=1 
C326: x8+x49 <=1 
C327: x8+x53 <=1 
C328: x8+x57 <=1 
C329: x8+x58-y8_58 <=1 
C330: x8+x59-y8_59 <=1 
C331: x8+x61-y8_61 <=1 
C332: x8+x63 <=1 
C333: x8+x64-y8_64 <=1 
C334: x8+x65-y8_65 <=1 
C335: x9+x12 <=1 
C336: x9+x13 <=1 
C337: x9+x16-y9_16 <=1 
C338: x9+x19 <=1 
C339: x9+x24 <=1 
C340: x9+x26 <=1 
C341: x9+x27 <=1 
C342: x9+x29-y9_29 <=1 
C343: x9+x33 <=1 
C344: x9+x38 <=1 
C345: x9+x40 <=1 
C346: x9+x41-y9_41 <=1 
C347: x9+x45 <=1 
C348: x9+x47 <=1 
C349: x9+x48 <=1 
C350: x9+x49-y9_49 <=1 
C351: x9+x50 <=1 
C352: x9+x51-y9_51 <=1 
C353: x9+x52-y9_52 <=1 
C354: x9+x53-y9_53 <=1 
C355: x9+x54 <=1 
C356: x9+x55-y9_55 <=1 
C357: x9+x56 <=1 
C358: x9+x57-y9_57 <=1 
C359: x9+x58 <=1 
C360: x9+x59 <=1 
C361: x9+x61-y9_61 <=1 
C362: x9+x62 <=1 
C363: x9+x64-y9_64 <=1 
C364: x9+x65 <=1 
C365: x9+x66-y9_66 <=1 
C366: x10+x11-y10_11 <=1 
C367: x10+x14-y10_14 <=1 
C368: x10+x15 <=1 
C369: x10+x16-y10_16 <=1 
C370: x10+x19 <=1 
C371: x10+x21-y10_21 <=1 
C372: x10+x22 <=1 
C373: x10+x24-y10_24 <=1 
C374: x10+x25-y10_25 <=1 
C375: x10+x27-y10_27 <=1 
C376: x10+x29-y10_29 <=1 
C377: x10+x32 <=1 
C378: x10+x34 <=1 
C379: x10+x35-y10_35 <=1 
C380: x10+x36 <=1 
C381: x10+x38-y10_38 <=1 
C382: x10+x39 <=1 
C383: x10+x43-y10_43 <=1 
C384: x10+x44-y10_44 <=1 
C385: x10+x45 <=1 
C386: x10+x46-y10_46 <=1 
C387: x10+x48 <=1 
C388: x10+x49 <=1 
C389: x10+x50-y10_50 <=1 
C390: x10+x51-y10_51 <=1 
C391: x10+x52 <=1 
C392: x10+x53-y10_53 <=1 
C393: x10+x54 <=1 
C394: x10+x58-y10_58 <=1 
C395: x10+x59-y10_59 <=1 
C396: x10+x60 <=1 
C397: x10+x61-y10_61 <=1 
C398: x10+x64 <=1 
C399: x10+x65 <=1 
C400: x10+x66 <=1 
C401: x11+x13-y11_13 <=1 
C402: x11+x14-y11_14 <=1 
C403: x11+x15 <=1 
C404: x11+x16 <=1 
C405: x11+x20 <=1 
C406: x11+x22 <=1 
C407: x11+x23-y11_23 <=1 
C408: x11+x24 <=1 
C409: x11+x25 <=1 
C410: x11+x27-y11_27 <=1 
C411: x11+x28 <=1 
C412: x11+x29 <=1 
C413: x11+x30-y11_30 <=1 
C414: x11+x33-y11_33 <=1 
C415: x11+x34-y11_34 <=1 
C416: x11+x35-y11_35 <=1 
C417: x11+x36 <=1 
C418: x11+x37-y11_37 <=1 
C419: x11+x40 <=1 
C420: x11+x42-y11_42 <=1 
C421: x11+x44 <=1 
C422: x11+x45-y11_45 <=1 
C423: x11+x47 <=1 
C424: x11+x48-y11_48 <=1 
C425: x11+x50-y11_50 <=1 
C426: x11+x51 <=1 
C427: x11+x52-y11_52 <=1 
C428: x11+x53 <=1 
C429: x11+x55-y11_55 <=1 
C430: x11+x56 <=1 
C431: x11+x57-y11_57 <=1 
C432: x11+x59 <=1 
C433: x11+x62-y11_62 <=1 
C434: x11+x63 <=1 
C435: x11+x65-y11_65 <=1 
C436: x11+x66 <=1 
C437: x12+x13-y12_13 <=1 
C438: x12+x14-y12_14 <=1 
C439: x12+x15 <=1 
C440: x12+x16 <=1 
C441: x12+x17-y12_17 <=1 
C442: x12+x19-y12_19 <=1 
C443: x12+x22-y12_22 <=1 
C444: x12+x24 <=1 
C445: x12+x26-y12_26 <=1 
C446: x12+x27-y12_27 <=1 
C447: x12+x28-y12_28 <=1 
C448: x12+x30-y12_30 <=1 
C449: x12+x32-y12_32 <=1 
C450: x12+x33 <=1 
C451: x12+x34 <=1 
C452: x12+x39 <=1 
C453: x12+x43-y12_43 <=1 
C454: x12+x44-y12_44 <=1 
C455: x12+x48 <=1 
C456: x12+x49 <=1 
C457: x12+x50 <=1 
C458: x12+x51 <=1 
C459: x12+x53 <=1 
C460: x12+x54-y12_54 <=1 
C461: x12+x57 <=1 
C462: x12+x59 <=1 
C463: x12+x60 <=1 
C464: x12+x61 <=1 
C465: x12+x62-y12_62 <=1 
C466: x12+x64-y12_64 <=1 
C467: x12+x66 <=1 
C468: x13+x15-y13_15 <=1 
C469: x13+x16-y13_16 <=1 
C470: x13+x18 <=1 
C471: x13+x19-y13_19 <=1 
C472: x13+x20-y13_20 <=1 
C473: x13+x24 <=1 
C474: x13+x26 <=1 
C475: x13+x27 <=1 
C476: x13+x28-y13_28 <=1 
C477: x13+x30 <=1 
C478: x13+x31 <=1 
C479: x13+x32 <=1 
C480: x13+x33-y13_33 <=1 
C481: x13+x34-y13_34 <=1 
C482: x13+x37-y13_37 <=1 
C483: x13+x38 <=1 
C484: x13+x40 <=1 
C485: x13+x43-y13_43 <=1 
C486: x13+x44 <=1 
C487: x13+x45-y13_45 <=1 
C488: x13+x47 <=1 
C489: x13+x48 <=1 
C490: x13+x49 <=1 
C491: x13+x50 <=1 
C492: x13+x52 <=1 
C493: x13+x53 <=1 
C494: x13+x54-y13_54 <=1 
C495: x13+x55-y13_55 <=1 
C496: x13+x56-y13_56 <=1 
C497: x13+x57-y13_57 <=1 
C498: x13+x58-y13_58 <=1 
C499: x13+x59-y13_59 <=1 
C500: x13+x61-y13_61 <=1 
C501: x13+x65 <=1 
C502: x13+x66 <=1 
C503: x14+x15-y14_15 <=1 
C504: x14+x16 <=1 
C505: x14+x21-y14_21 <=1 
C506: x14+x23 <=1 
C507: x14+x25 <=1 
C508: x14+x26-y14_26 <=1 
C509: x14+x27-y14_27 <=1 
C510: x14+x28-y14_28 <=1 
C511: x14+x29 <=1 
C512: x14+x30 <=1 
C513: x14+x31-y14_31 <=1 
C514: x14+x32-y14_32 <=1 
C515: x14+x34 <=1 
C516: x14+x35-y14_35 <=1 
C517: x14+x36-y14_36 <=1 
C518: x14+x40 <=1 
C519: x14+x43 <=1 
C520: x14+x44-y14_44 <=1 
C521: x14+x45-y14_45 <=1 
C522: x14+x46 <=1 
C523: x14+x47-y14_47 <=1 
C524: x14+x48 <=1 
C525: x14+x49 <=1 
C526: x14+x51 <=1 
C527: x14+x52-y14_52 <=1 
C528: x14+x53-y14_53 <=1 
C529: x14+x58 <=1 
C530: x14+x60 <=1 
C531: x14+x61 <=1 
C532: x14+x62 <=1 
C533: x14+x63-y14_63 <=1 
C534: x14+x65 <=1 
C535: x15+x17-y15_17 <=1 
C536: x15+x18-y15_18 <=1 
C537: x15+x19-y15_19 <=1 
C538: x15+x22-y15_22 <=1 
C539: x15+x23-y15_23 <=1 
C540: x15+x24-y15_24 <=1 
C541: x15+x27 <=1 
C542: x15+x28 <=1 
C543: x15+x31 <=1 
C544: x15+x33-y15_33 <=1 
C545: x15+x34 <=1 
C546: x15+x35 <=1 
C547: x15+x40 <=1 
C548: x15+x42-y15_42 <=1 
C549: x15+x43-y15_43 <=1 
C550: x15+x44-y15_44 <=1 
C551: x15+x46 <=1 
C552: x15+x47-y15_47 <=1 
C553: x15+x49 <=1 
C554: x15+x50-y15_50 <=1 
C555: x15+x54-y15_54 <=1 
C556: x15+x55 <=1 
C557: x15+x56 <=1 
C558: x15+x57 <=1 
C559: x15+x58 <=1 
C560: x15+x59-y15_59 <=1 
C561: x15+x63-y15_63 <=1 
C562: x15+x64 <=1 
C563: x15+x66 <=1 
C564: x16+x17-y16_17 <=1 
C565: x16+x18 <=1 
C566: x16+x19 <=1 
C567: x16+x20-y16_20 <=1 
C568: x16+x22 <=1 
C569: x16+x23 <=1 
C570: x16+x24 <=1 
C571: x16+x25 <=1 
C572: x16+x27-y16_27 <=1 
C573: x16+x28 <=1 
C574: x16+x29-y16_29 <=1 
C575: x16+x30 <=1 
C576: x16+x31 <=1 
C577: x16+x32-y16_32 <=1 
C578: x16+x33 <=1 
C579: x16+x34 <=1 
C580: x16+x35 <=1 
C581: x16+x36-y16_36 <=1 
C582: x16+x37 <=1 
C583: x16+x38 <=1 
C584: x16+x41 <=1 
C585: x16+x43 <=1 
C586: x16+x44-y16_44 <=1 
C587: x16+x46 <=1 
C588: x16+x49-y16_49 <=1 
C589: x16+x50-y16_50 <=1 
C590: x16+x51 <=1 
C591: x16+x52 <=1 
C592: x16+x55 <=1 
C593: x16+x56-y16_56 <=1 
C594: x16+x57 <=1 
C595: x16+x58-y16_58 <=1 
C596: x16+x60 <=1 
C597: x16+x61-y16_61 <=1 
C598: x16+x62 <=1 
C599: x16+x63 <=1 
C600: x16+x65 <=1 
C601: x17+x18-y17_18 <=1 
C602: x17+x20-y17_20 <=1 
C603: x17+x21-y17_21 <=1 
C604: x17+x22 <=1 
C605: x17+x24 <=1 
C606: x17+x26-y17_26 <=1 
C607: x17+x31 <=1 
C608: x17+x32 <=1 
C609: x17+x33-y17_33 <=1 
C610: x17+x37-y17_37 <=1 
C611: x17+x38 <=1 
C612: x17+x39-y17_39 <=1 
C613: x17+x40-y17_40 <=1 
C614: x17+x41-y17_41 <=1 
C615: x17+x42-y17_42 <=1 
C616: x17+x45 <=1 
C617: x17+x47 <=1 
C618: x17+x50-y17_50 <=1 
C619: x17+x52-y17_52 <=1 
C620: x17+x53-y17_53 <=1 
C621: x17+x54 <=1 
C622: x17+x56 <=1 
C623: x17+x57 <=1 
C624: x17+x62 <=1 
C625: x17+x64-y17_64 <=1 
C626: x17+x65-y17_65 <=1 
C627: x18+x19 <=1 
C628: x18+x20-y18_20 <=1 
C629: x18+x22-y18_22 <=1 
C630: x18+x23 <=1 
C631: x18+x29-y18_29 <=1 
C632: x18+x30 <=1 
C633: x18+x31-y18_31 <=1 
C634: x18+x33 <=1 
C635: x18+x34 <=1 
C636: x18+x36-y18_36 <=1 
C637: x18+x37 <=1 
C638: x18+x39-y18_39 <=1 
C639: x18+x40-y18_40 <=1 
C640: x18+x44-y18_44 <=1 
C641: x18+x45 <=1 
C642: x18+x49 <=1 
C643: x18+x50-y18_50 <=1 
C644: x18+x52 <=1 
C645: x18+x53 <=1 
C646: x18+x54 <=1 
C647: x18+x56-y18_56 <=1 
C648: x18+x57-y18_57 <=1 
C649: x18+x58 <=1 
C650: x18+x59-y18_59 <=1 
C651: x18+x61 <=1 
C652: x18+x63-y18_63 <=1 
C653: x18+x65 <=1 
C654: x19+x20-y19_20 <=1 
C655: x19+x21-y19_21 <=1 
C656: x19+x22-y19_22 <=1 
C657: x19+x23-y19_23 <=1 
C658: x19+x24-y19_24 <=1 
C659: x19+x25 <=1 
C660: x19+x27 <=1 
C661: x19+x29 <=1 
C662: x19+x31-y19_31 <=1 
C663: x19+x32-y19_32 <=1 
C664: x19+x34-y19_34 <=1 
C665: x19+x38-y19_38 <=1 
C666: x19+x39 <=1 
C667: x19+x40 <=1 
C668: x19+x41 <=1 
C669: x19+x46-y19_46 <=1 
C670: x19+x47-y19_47 <=1 
C671: x19+x49 <=1 
C672: x19+x50-y19_50 <=1 
C673: x19+x51-y19_51 <=1 
C674: x19+x52 <=1 
C675: x19+x53-y19_53 <=1 
C676: x19+x54 <=1 
C677: x19+x55 <=1 
C678: x19+x56 <=1 
C679: x19+x59-y19_59 <=1 
C680: x19+x60 <=1 
C681: x19+x64-y19_64 <=1 
C682: x19+x65-y19_65 <=1 
C683: x19+x66-y19_66 <=1 
C684: x20+x23 <=1 
C685: x20+x29 <=1 
C686: x20+x30-y20_30 <=1 
C687: x20+x33-y20_33 <=1 
C688: x20+x34-y20_34 <=1 
C689: x20+x35-y20_35 <=1 
C690: x20+x37 <=1 
C691: x20+x39 <=1 
C692: x20+x41 <=1 
C693: x20+x42-y20_42 <=1 
C694: x20+x43-y20_43 <=1 
C695: x20+x45 <=1 
C696: x20+x46-y20_46 <=1 
C697: x20+x48 <=1 
C698: x20+x49 <=1 
C699: x20+x50-y20_50 <=1 
C700: x20+x51 <=1 
C701: x20+x52 <=1 
C702: x20+x55 <=1 
C703: x20+x56-y20_56 <=1 
C704: x20+x59-y20_59 <=1 
C705: x20+x60 <=1 
C706: x20+x61-y20_61 <=1 
C707: x20+x63-y20_63 <=1 
C708: x20+x64 <=1 
C709: x20+x65-y20_65 <=1 
C710: x21+x22-y21_22 <=1 
C711: x21+x23-y21_23 <=1 
C712: x21+x25-y21_25 <=1 
C713: x21+x27 <=1 
C714: x21+x28-y21_28 <=1 
C715: x21+x29 <=1 
C716: x21+x30 <=1 
C717: x21+x32 <=1 
C718: x21+x33-y21_33 <=1 
C719: x21+x35 <=1 
C720: x21+x37 <=1 
C721: x21+x39-y21_39 <=1 
C722: x21+x41-y21_41 <=1 
C723: x21+x44 <=1 
C724: x21+x48-y21_48 <=1 
C725: x21+x49-y21_49 <=1 
C726: x21+x50-y21_50 <=1 
C727: x21+x51-y21_51 <=1 
C728: x21+x52-y21_52 <=1 
C729: x21+x53-y21_53 <=1 
C730: x21+x54-y21_54 <=1 
C731: x21+x57 <=1 
C732: x21+x60-y21_60 <=1 
C733: x21+x61 <=1 
C734: x21+x62 <=1 
C735: x21+x64-y21_64 <=1 
C736: x22+x23 <=1 
C737: x22+x24 <=1 
C738: x22+x26 <=1 
C739: x22+x27-y22_27 <=1 
C740: x22+x28-y22_28 <=1 
C741: x22+x29-y22_29 <=1 
C742: x22+x31 <=1 
C743: x22+x36-y22_36 <=1 
C744: x22+x37 <=1 
C745: x22+x40-y22_40 <=1 
C746: x22+x41-y22_41 <=1 
C747: x22+x42-y22_42 <=1 
C748: x22+x43 <=1 
C749: x22+x44 <=1 
C750: x22+x49 <=1 
C751: x22+x51 <=1 
C752: x22+x52-y22_52 <=1 
C753: x22+x53 <=1 
C754: x22+x54 <=1 
C755: x22+x55 <=1 
C756: x22+x56-y22_56 <=1 
C757: x22+x57-y22_57 <=1 
C758: x22+x58 <=1 
C759: x22+x60 <=1 
C760: x22+x62 <=1 
C761: x22+x63 <=1 
C762: x22+x65 <=1 
C763: x22+x66-y22_66 <=1 
C764: x23+x25 <=1 
C765: x23+x27 <=1 
C766: x23+x28-y23_28 <=1 
C767: x23+x29-y23_29 <=1 
C768: x23+x30 <=1 
C769: x23+x31 <=1 
C770: x23+x32 <=1 
C771: x23+x33 <=1 
C772: x23+x34-y23_34 <=1 
C773: x23+x35-y23_35 <=1 
C774: x23+x38-y23_38 <=1 
C775: x23+x39-y23_39 <=1 
C776: x23+x40 <=1 
C777: x23+x41-y23_41 <=1 
C778: x23+x42 <=1 
C779: x23+x43-y23_43 <=1 
C780: x23+x44 <=1 
C781: x23+x45-y23_45 <=1 
C782: x23+x46 <=1 
C783: x23+x48 <=1 
C784: x23+x50-y23_50 <=1 
C785: x23+x51-y23_51 <=1 
C786: x23+x52-y23_52 <=1 
C787: x23+x53 <=1 
C788: x23+x55 <=1 
C789: x23+x57 <=1 
C790: x23+x59-y23_59 <=1 
C791: x23+x60 <=1 
C792: x23+x61-y23_61 <=1 
C793: x23+x63 <=1 
C794: x23+x64-y23_64 <=1 
C795: x23+x65 <=1 
C796: x23+x66 <=1 
C797: x24+x26-y24_26 <=1 
C798: x24+x29-y24_29 <=1 
C799: x24+x30-y24_30 <=1 
C800: x24+x34-y24_34 <=1 
C801: x24+x39 <=1 
C802: x24+x42 <=1 
C803: x24+x48-y24_48 <=1 
C804: x24+x49-y24_49 <=1 
C805: x24+x51 <=1 
C806: x24+x52-y24_52 <=1 
C807: x24+x57 <=1 
C808: x24+x58 <=1 
C809: x24+x59-y24_59 <=1 
C810: x24+x62-y24_62 <=1 
C811: x24+x65 <=1 
C812: x24+x66 <=1 
C813: x25+x26-y25_26 <=1 
C814: x25+x28 <=1 
C815: x25+x29-y25_29 <=1 
C816: x25+x30-y25_30 <=1 
C817: x25+x35 <=1 
C818: x25+x41 <=1 
C819: x25+x44-y25_44 <=1 
C820: x25+x47-y25_47 <=1 
C821: x25+x49-y25_49 <=1 
C822: x25+x51-y25_51 <=1 
C823: x25+x52 <=1 
C824: x25+x54-y25_54 <=1 
C825: x25+x55-y25_55 <=1 
C826: x25+x57 <=1 
C827: x25+x58-y25_58 <=1 
C828: x25+x60 <=1 
C829: x25+x62 <=1 
C830: x25+x64 <=1 
C831: x26+x27-y26_27 <=1 
C832: x26+x28-y26_28 <=1 
C833: x26+x29-y26_29 <=1 
C834: x26+x30 <=1 
C835: x26+x33 <=1 
C836: x26+x34 <=1 
C837: x26+x35 <=1 
C838: x26+x36 <=1 
C839: x26+x38-y26_38 <=1 
C840: x26+x40 <=1 
C841: x26+x41-y26_41 <=1 
C842: x26+x44 <=1 
C843: x26+x45-y26_45 <=1 
C844: x26+x46-y26_46 <=1 
C845: x26+x47-y26_47 <=1 
C846: x26+x48-y26_48 <=1 
C847: x26+x50-y26_50 <=1 
C848: x26+x55-y26_55 <=1 
C849: x26+x56-y26_56 <=1 
C850: x26+x57 <=1 
C851: x26+x58 <=1 
C852: x26+x60-y26_60 <=1 
C853: x26+x61-y26_61 <=1 
C854: x26+x66-y26_66 <=1 
C855: x27+x28 <=1 
C856: x27+x29 <=1 
C857: x27+x31 <=1 
C858: x27+x32-y27_32 <=1 
C859: x27+x33 <=1 
C860: x27+x36 <=1 
C861: x27+x38 <=1 
C862: x27+x42 <=1 
C863: x27+x43-y27_43 <=1 
C864: x27+x44-y27_44 <=1 
C865: x27+x45-y27_45 <=1 
C866: x27+x47 <=1 
C867: x27+x48-y27_48 <=1 
C868: x27+x49 <=1 
C869: x27+x50-y27_50 <=1 
C870: x27+x51-y27_51 <=1 
C871: x27+x52-y27_52 <=1 
C872: x27+x53 <=1 
C873: x27+x54 <=1 
C874: x27+x59 <=1 
C875: x27+x60 <=1 
C876: x27+x63 <=1 
C877: x27+x64 <=1 
C878: x27+x65-y27_65 <=1 
C879: x27+x66-y27_66 <=1 
C880: x28+x29-y28_29 <=1 
C881: x28+x30-y28_30 <=1 
C882: x28+x33 <=1 
C883: x28+x34-y28_34 <=1 
C884: x28+x36 <=1 
C885: x28+x37 <=1 
C886: x28+x40-y28_40 <=1 
C887: x28+x41-y28_41 <=1 
C888: x28+x45-y28_45 <=1 
C889: x28+x47 <=1 
C890: x28+x48 <=1 
C891: x28+x50-y28_50 <=1 
C892: x28+x51-y28_51 <=1 
C893: x28+x52-y28_52 <=1 
C894: x28+x54 <=1 
C895: x28+x55 <=1 
C896: x28+x56-y28_56 <=1 
C897: x28+x58-y28_58 <=1 
C898: x28+x61 <=1 
C899: x28+x62 <=1 
C900: x28+x63-y28_63 <=1 
C901: x28+x64 <=1 
C902: x29+x30 <=1 
C903: x29+x31-y29_31 <=1 
C904: x29+x33-y29_33 <=1 
C905: x29+x36 <=1 
C906: x29+x37 <=1 
C907: x29+x39 <=1 
C908: x29+x42 <=1 
C909: x29+x44-y29_44 <=1 
C910: x29+x45 <=1 
C911: x29+x46-y29_46 <=1 
C912: x29+x49-y29_49 <=1 
C913: x29+x50-y29_50 <=1 
C914: x29+x51 <=1 
C915: x29+x55-y29_55 <=1 
C916: x29+x57 <=1 
C917: x29+x58 <=1 
C918: x29+x60-y29_60 <=1 
C919: x29+x61-y29_61 <=1 
C920: x29+x62 <=1 
C921: x29+x63 <=1 
C922: x29+x64 <=1 
C923: x29+x65-y29_65 <=1 
C924: x30+x31-y30_31 <=1 
C925: x30+x32-y30_32 <=1 
C926: x30+x35-y30_35 <=1 
C927: x30+x36-y30_36 <=1 
C928: x30+x38-y30_38 <=1 
C929: x30+x39 <=1 
C930: x30+x41 <=1 
C931: x30+x42 <=1 
C932: x30+x46 <=1 
C933: x30+x47-y30_47 <=1 
C934: x30+x48 <=1 
C935: x30+x49-y30_49 <=1 
C936: x30+x50-y30_50 <=1 
C937: x30+x51-y30_51 <=1 
C938: x30+x52-y30_52 <=1 
C939: x30+x54-y30_54 <=1 
C940: x30+x55 <=1 
C941: x30+x56-y30_56 <=1 
C942: x30+x57-y30_57 <=1 
C943: x30+x61-y30_61 <=1 
C944: x30+x62-y30_62 <=1 
C945: x30+x63 <=1 
C946: x30+x64-y30_64 <=1 
C947: x30+x65-y30_65 <=1 
C948: x31+x32-y31_32 <=1 
C949: x31+x39 <=1 
C950: x31+x40-y31_40 <=1 
C951: x31+x41 <=1 
C952: x31+x42-y31_42 <=1 
C953: x31+x45-y31_45 <=1 
C954: x31+x46 <=1 
C955: x31+x47-y31_47 <=1 
C956: x31+x52-y31_52 <=1 
C957: x31+x55 <=1 
C958: x31+x57 <=1 
C959: x31+x58 <=1 
C960: x31+x59-y31_59 <=1 
C961: x31+x60 <=1 
C962: x31+x61-y31_61 <=1 
C963: x31+x62-y31_62 <=1 
C964: x31+x63 <=1 
C965: x31+x65-y31_65 <=1 
C966: x31+x66 <=1 
C967: x32+x33 <=1 
C968: x32+x39 <=1 
C969: x32+x40-y32_40 <=1 
C970: x32+x43-y32_43 <=1 
C971: x32+x44-y32_44 <=1 
C972: x32+x45 <=1 
C973: x32+x46 <=1 
C974: x32+x47-y32_47 <=1 
C975: x32+x51-y32_51 <=1 
C976: x32+x52-y32_52 <=1 
C977: x32+x54-y32_54 <=1 
C978: x32+x56 <=1 
C979: x32+x57-y32_57 <=1 
C980: x32+x58-y32_58 <=1 
C981: x32+x59-y32_59 <=1 
C982: x32+x61 <=1 
C983: x32+x62 <=1 
C984: x32+x65-y32_65 <=1 
C985: x33+x34 <=1 
C986: x33+x35-y33_35 <=1 
C987: x33+x37 <=1 
C988: x33+x38 <=1 
C989: x33+x39-y33_39 <=1 
C990: x33+x41-y33_41 <=1 
C991: x33+x42 <=1 
C992: x33+x44-y33_44 <=1 
C993: x33+x47 <=1 
C994: x33+x48-y33_48 <=1 
C995: x33+x50 <=1 
C996: x33+x52 <=1 
C997: x33+x54 <=1 
C998: x33+x56 <=1 
C999: x33+x57-y33_57 <=1 
C1000: x33+x58 <=1 
C1001: x33+x59-y33_59 <=1 
C1002: x33+x60 <=1 
C1003: x33+x61 <=1 
C1004: x33+x62 <=1 
C1005: x33+x64-y33_64 <=1 
C1006: x33+x66-y33_66 <=1 
C1007: x34+x35-y34_35 <=1 
C1008: x34+x36-y34_36 <=1 
C1009: x34+x37-y34_37 <=1 
C1010: x34+x38-y34_38 <=1 
C1011: x34+x40 <=1 
C1012: x34+x43 <=1 
C1013: x34+x45-y34_45 <=1 
C1014: x34+x47 <=1 
C1015: x34+x48-y34_48 <=1 
C1016: x34+x49 <=1 
C1017: x34+x51 <=1 
C1018: x34+x53-y34_53 <=1 
C1019: x34+x55 <=1 
C1020: x34+x57-y34_57 <=1 
C1021: x34+x58 <=1 
C1022: x34+x59-y34_59 <=1 
C1023: x34+x62 <=1 
C1024: x34+x65-y34_65 <=1 
C1025: x34+x66-y34_66 <=1 
C1026: x35+x36 <=1 
C1027: x35+x38 <=1 
C1028: x35+x40 <=1 
C1029: x35+x41 <=1 
C1030: x35+x43-y35_43 <=1 
C1031: x35+x45 <=1 
C1032: x35+x46 <=1 
C1033: x35+x49-y35_49 <=1 
C1034: x35+x50 <=1 
C1035: x35+x51-y35_51 <=1 
C1036: x35+x52-y35_52 <=1 
C1037: x35+x53 <=1 
C1038: x35+x54-y35_54 <=1 
C1039: x35+x55-y35_55 <=1 
C1040: x35+x62 <=1 
C1041: x35+x63 <=1 
C1042: x35+x65 <=1 
C1043: x35+x66 <=1 
C1044: x36+x38 <=1 
C1045: x36+x39-y36_39 <=1 
C1046: x36+x40 <=1 
C1047: x36+x43-y36_43 <=1 
C1048: x36+x44 <=1 
C1049: x36+x46-y36_46 <=1 
C1050: x36+x48-y36_48 <=1 
C1051: x36+x51 <=1 
C1052: x36+x52 <=1 
C1053: x36+x53-y36_53 <=1 
C1054: x36+x56 <=1 
C1055: x36+x60-y36_60 <=1 
C1056: x36+x61-y36_61 <=1 
C1057: x36+x62 <=1 
C1058: x36+x63 <=1 
C1059: x36+x66 <=1 
C1060: x37+x39-y37_39 <=1 
C1061: x37+x40-y37_40 <=1 
C1062: x37+x42 <=1 
C1063: x37+x44 <=1 
C1064: x37+x46 <=1 
C1065: x37+x48-y37_48 <=1 
C1066: x37+x49-y37_49 <=1 
C1067: x37+x50 <=1 
C1068: x37+x51-y37_51 <=1 
C1069: x37+x52-y37_52 <=1 
C1070: x37+x53 <=1 
C1071: x37+x58 <=1 
C1072: x37+x59-y37_59 <=1 
C1073: x37+x61-y37_61 <=1 
C1074: x37+x63 <=1 
C1075: x37+x65-y37_65 <=1 
C1076: x37+x66 <=1 
C1077: x38+x41-y38_41 <=1 
C1078: x38+x42 <=1 
C1079: x38+x44-y38_44 <=1 
C1080: x38+x46 <=1 
C1081: x38+x47-y38_47 <=1 
C1082: x38+x48 <=1 
C1083: x38+x49-y38_49 <=1 
C1084: x38+x50-y38_50 <=1 
C1085: x38+x51-y38_51 <=1 
C1086: x38+x52-y38_52 <=1 
C1087: x38+x53-y38_53 <=1 
C1088: x38+x54-y38_54 <=1 
C1089: x38+x55 <=1 
C1090: x38+x57 <=1 
C1091: x38+x58 <=1 
C1092: x38+x59-y38_59 <=1 
C1093: x38+x60 <=1 
C1094: x38+x61-y38_61 <=1 
C1095: x38+x62-y38_62 <=1 
C1096: x38+x63 <=1 
C1097: x38+x64-y38_64 <=1 
C1098: x38+x65 <=1 
C1099: x38+x66 <=1 
C1100: x39+x41 <=1 
C1101: x39+x43-y39_43 <=1 
C1102: x39+x44-y39_44 <=1 
C1103: x39+x47-y39_47 <=1 
C1104: x39+x50-y39_50 <=1 
C1105: x39+x53 <=1 
C1106: x39+x54 <=1 
C1107: x39+x55 <=1 
C1108: x39+x56 <=1 
C1109: x39+x57 <=1 
C1110: x39+x58-y39_58 <=1 
C1111: x39+x59 <=1 
C1112: x39+x61-y39_61 <=1 
C1113: x39+x62-y39_62 <=1 
C1114: x39+x63-y39_63 <=1 
C1115: x39+x65-y39_65 <=1 
C1116: x39+x66-y39_66 <=1 
C1117: x40+x42-y40_42 <=1 
C1118: x40+x43-y40_43 <=1 
C1119: x40+x44-y40_44 <=1 
C1120: x40+x46 <=1 
C1121: x40+x47 <=1 
C1122: x40+x48-y40_48 <=1 
C1123: x40+x49-y40_49 <=1 
C1124: x40+x50 <=1 
C1125: x40+x53 <=1 
C1126: x40+x54 <=1 
C1127: x40+x55-y40_55 <=1 
C1128: x40+x57-y40_57 <=1 
C1129: x40+x61-y40_61 <=1 
C1130: x40+x62 <=1 
C1131: x40+x63 <=1 
C1132: x40+x64-y40_64 <=1 
C1133: x41+x44 <=1 
C1134: x41+x45 <=1 
C1135: x41+x47 <=1 
C1136: x41+x49 <=1 
C1137: x41+x51 <=1 
C1138: x41+x52 <=1 
C1139: x41+x56-y41_56 <=1 
C1140: x41+x57 <=1 
C1141: x41+x58 <=1 
C1142: x41+x59 <=1 
C1143: x41+x60-y41_60 <=1 
C1144: x41+x61-y41_61 <=1 
C1145: x41+x62 <=1 
C1146: x41+x64-y41_64 <=1 
C1147: x41+x66 <=1 
C1148: x42+x44-y42_44 <=1 
C1149: x42+x46 <=1 
C1150: x42+x47-y42_47 <=1 
C1151: x42+x49-y42_49 <=1 
C1152: x42+x50-y42_50 <=1 
C1153: x42+x51 <=1 
C1154: x42+x52-y42_52 <=1 
C1155: x42+x53-y42_53 <=1 
C1156: x42+x55 <=1 
C1157: x42+x57-y42_57 <=1 
C1158: x42+x58-y42_58 <=1 
C1159: x42+x59-y42_59 <=1 
C1160: x42+x60-y42_60 <=1 
C1161: x42+x61-y42_61 <=1 
C1162: x42+x62 <=1 
C1163: x42+x63 <=1 
C1164: x42+x64-y42_64 <=1 
C1165: x43+x45-y43_45 <=1 
C1166: x43+x46 <=1 
C1167: x43+x51 <=1 
C1168: x43+x52-y43_52 <=1 
C1169: x43+x53-y43_53 <=1 
C1170: x43+x56-y43_56 <=1 
C1171: x43+x59 <=1 
C1172: x43+x60-y43_60 <=1 
C1173: x43+x61-y43_61 <=1 
C1174: x43+x65-y43_65 <=1 
C1175: x43+x66 <=1 
C1176: x44+x46-y44_46 <=1 
C1177: x44+x49-y44_49 <=1 
C1178: x44+x52 <=1 
C1179: x44+x53-y44_53 <=1 
C1180: x44+x57 <=1 
C1181: x44+x58-y44_58 <=1 
C1182: x44+x59-y44_59 <=1 
C1183: x44+x60-y44_60 <=1 
C1184: x44+x62-y44_62 <=1 
C1185: x44+x63 <=1 
C1186: x44+x64-y44_64 <=1 
C1187: x44+x65-y44_65 <=1 
C1188: x44+x66 <=1 
C1189: x45+x47-y45_47 <=1 
C1190: x45+x48 <=1 
C1191: x45+x49-y45_49 <=1 
C1192: x45+x51 <=1 
C1193: x45+x52-y45_52 <=1 
C1194: x45+x54 <=1 
C1195: x45+x55-y45_55 <=1 
C1196: x45+x56 <=1 
C1197: x45+x58 <=1 
C1198: x45+x63-y45_63 <=1 
C1199: x45+x64 <=1 
C1200: x45+x65 <=1 
C1201: x46+x47 <=1 
C1202: x46+x48-y46_48 <=1 
C1203: x46+x50 <=1 
C1204: x46+x51-y46_51 <=1 
C1205: x46+x52-y46_52 <=1 
C1206: x46+x53-y46_53 <=1 
C1207: x46+x54 <=1 
C1208: x46+x56-y46_56 <=1 
C1209: x46+x57 <=1 
C1210: x46+x58 <=1 
C1211: x46+x60 <=1 
C1212: x46+x63 <=1 
C1213: x46+x65 <=1 
C1214: x47+x48-y47_48 <=1 
C1215: x47+x49-y47_49 <=1 
C1216: x47+x50-y47_50 <=1 
C1217: x47+x51 <=1 
C1218: x47+x55-y47_55 <=1 
C1219: x47+x56 <=1 
C1220: x47+x58 <=1 
C1221: x47+x60 <=1 
C1222: x47+x61 <=1 
C1223: x47+x62 <=1 
C1224: x47+x63 <=1 
C1225: x48+x49-y48_49 <=1 
C1226: x48+x50-y48_50 <=1 
C1227: x48+x56-y48_56 <=1 
C1228: x48+x57 <=1 
C1229: x48+x58-y48_58 <=1 
C1230: x48+x59 <=1 
C1231: x48+x60 <=1 
C1232: x48+x61 <=1 
C1233: x48+x64 <=1 
C1234: x48+x65 <=1 
C1235: x49+x50-y49_50 <=1 
C1236: x49+x51 <=1 
C1237: x49+x54 <=1 
C1238: x49+x57 <=1 
C1239: x49+x59-y49_59 <=1 
C1240: x49+x61-y49_61 <=1 
C1241: x49+x62 <=1 
C1242: x49+x63-y49_63 <=1 
C1243: x49+x64 <=1 
C1244: x49+x65 <=1 
C1245: x50+x51 <=1 
C1246: x50+x53 <=1 
C1247: x50+x54-y50_54 <=1 
C1248: x50+x57 <=1 
C1249: x50+x58-y50_58 <=1 
C1250: x50+x59 <=1 
C1251: x50+x60-y50_60 <=1 
C1252: x50+x61-y50_61 <=1 
C1253: x50+x64-y50_64 <=1 
C1254: x50+x66-y50_66 <=1 
C1255: x51+x52 <=1 
C1256: x51+x54-y51_54 <=1 
C1257: x51+x56 <=1 
C1258: x51+x57 <=1 
C1259: x51+x59 <=1 
C1260: x51+x61-y51_61 <=1 
C1261: x51+x62-y51_62 <=1 
C1262: x51+x64 <=1 
C1263: x51+x65 <=1 
C1264: x51+x66-y51_66 <=1 
C1265: x52+x53 <=1 
C1266: x52+x54-y52_54 <=1 
C1267: x52+x56 <=1 
C1268: x52+x57-y52_57 <=1 
C1269: x52+x58-y52_58 <=1 
C1270: x52+x59-y52_59 <=1 
C1271: x52+x63-y52_63 <=1 
C1272: x52+x65 <=1 
C1273: x53+x54-y53_54 <=1 
C1274: x53+x55-y53_55 <=1 
C1275: x53+x56-y53_56 <=1 
C1276: x53+x58-y53_58 <=1 
C1277: x53+x60 <=1 
C1278: x53+x61 <=1 
C1279: x53+x63-y53_63 <=1 
C1280: x53+x64-y53_64 <=1 
C1281: x53+x65-y53_65 <=1 
C1282: x54+x56-y54_56 <=1 
C1283: x54+x57-y54_57 <=1 
C1284: x54+x58-y54_58 <=1 
C1285: x54+x62 <=1 
C1286: x54+x63-y54_63 <=1 
C1287: x54+x66-y54_66 <=1 
C1288: x55+x56 <=1 
C1289: x55+x57-y55_57 <=1 
C1290: x55+x58 <=1 
C1291: x55+x59-y55_59 <=1 
C1292: x55+x60-y55_60 <=1 
C1293: x55+x62-y55_62 <=1 
C1294: x55+x63-y55_63 <=1 
C1295: x55+x66 <=1 
C1296: x56+x57-y56_57 <=1 
C1297: x56+x60 <=1 
C1298: x56+x61 <=1 
C1299: x56+x63 <=1 
C1300: x56+x66-y56_66 <=1 
C1301: x57+x58-y57_58 <=1 
C1302: x57+x59-y57_59 <=1 
C1303: x57+x60 <=1 
C1304: x57+x61-y57_61 <=1 
C1305: x57+x62-y57_62 <=1 
C1306: x57+x64-y57_64 <=1 
C1307: x57+x66-y57_66 <=1 
C1308: x58+x59 <=1 
C1309: x58+x61-y58_61 <=1 
C1310: x58+x62 <=1 
C1311: x58+x63 <=1 
C1312: x58+x65-y58_65 <=1 
C1313: x58+x66-y58_66 <=1 
C1314: x59+x60 <=1 
C1315: x59+x61 <=1 
C1316: x59+x62 <=1 
C1317: x59+x64-y59_64 <=1 
C1318: x59+x65 <=1 
C1319: x59+x66 <=1 
C1320: x60+x62 <=1 
C1321: x60+x63 <=1 
C1322: x60+x64-y60_64 <=1 
C1323: x60+x65 <=1 
C1324: x60+x66 <=1 
C1325: x61+x62-y61_62 <=1 
C1326: x61+x65 <=1 
C1327: x62+x63 <=1 
C1328: x62+x64 <=1 
C1329: x62+x65 <=1 
C1330: x62+x66 <=1 
C1331: x63+x65-y63_65 <=1 
C1332: x63+x66 <=1 
C1333: x65+x66 <=1 

binary
x0
x1
x2
x3
x4
x5
x6
x7
x8
x9
x10
x11
x12
x13
x14
x15
x16
x17
x18
x19
x20
x21
x22
x23
x24
x25
x26
x27
x28
x29
x30
x31
x32
x33
x34
x35
x36
x37
x38
x39
x40
x41
x42
x43
x44
x45
x46
x47
x48
x49
x50
x51
x52
x53
x54
x55
x56
x57
x58
x59
x60
x61
x62
x63
x64
x65
x66
