problem_generation/data/GISP/train/er_n=67_m=1333_p=0.60_SET2_setparam=100.00_alpha=0.50_272.sol
objective value:                                 1269
x2                                                  1 	(obj:100)
x5                                                  1 	(obj:100)
x20                                                 1 	(obj:100)
x24                                                 1 	(obj:100)
x25                                                 1 	(obj:100)
x30                                                 1 	(obj:100)
x31                                                 1 	(obj:100)
x38                                                 1 	(obj:100)
x43                                                 1 	(obj:100)
x44                                                 1 	(obj:100)
x47                                                 1 	(obj:100)
x53                                                 1 	(obj:100)
x54                                                 1 	(obj:100)
y25_47                                              1 	(obj:-1)
y2_54                                               1 	(obj:-1)
y2_31                                               1 	(obj:-1)
y2_30                                               1 	(obj:-1)
y5_31                                               1 	(obj:-1)
y20_43                                              1 	(obj:-1)
y43_53                                              1 	(obj:-1)
y5_44                                               1 	(obj:-1)
y31_47                                              1 	(obj:-1)
y24_30                                              1 	(obj:-1)
y30_54                                              1 	(obj:-1)
y38_54                                              1 	(obj:-1)
y30_31                                              1 	(obj:-1)
y2_53                                               1 	(obj:-1)
y2_43                                               1 	(obj:-1)
y25_54                                              1 	(obj:-1)
y5_53                                               1 	(obj:-1)
y2_47                                               1 	(obj:-1)
y5_20                                               1 	(obj:-1)
y5_38                                               1 	(obj:-1)
y5_47                                               1 	(obj:-1)
y38_44                                              1 	(obj:-1)
y38_53                                              1 	(obj:-1)
y30_38                                              1 	(obj:-1)
y30_47                                              1 	(obj:-1)
y20_30                                              1 	(obj:-1)
y53_54                                              1 	(obj:-1)
y38_47                                              1 	(obj:-1)
y44_53                                              1 	(obj:-1)
y25_44                                              1 	(obj:-1)
y25_30                                              1 	(obj:-1)
